C4
1.0
   0.7218038316017229   -2.2558343575596651   -0.9407702134160036
   0.7218038316017229   -2.2558343575596651    2.5111024765839964
  -2.6123600173268571   -2.2558343575596651   -0.0470272433929697
C
4
direct
   0.9142005300000000    0.9388126499999999    0.2327862900000000 C
   0.5857994799999999    0.2672137100000000    0.5611873400000000 C
   0.4142005300000000    0.7327862900000000    0.4388126500000000 C
   0.0857994700000000    0.0611873500000000    0.7672137100000000 C
