C12
1.0
  -0.1457501562929772    2.4762631963365020    0.4551944449825776
  -4.0579479687885334    0.0000000000000000   -1.2993272611570292
   0.1457501562929772   -2.4762631963365020    6.5311875050174226
C
12
direct
   0.7173297800000000    0.2842861600000000    0.4346595600000001 C
   0.3894096199999999    0.3228459100000001    0.7788192400000000 C
   0.9446668200000000    0.8826363699999999    0.8893336400000000 C
   0.7173297800000000    0.6503734000000000    0.4346595599999999 C
   0.2826702200000000    0.7157138400000000    0.5653404399999999 C
   0.0553331700000000    0.1173636299999999    0.1106663500000001 C
   0.9446668300000001    0.5066972800000000    0.8893336500000000 C
   0.3894096200000000    0.9559733400000000    0.7788192400000000 C
   0.6105903799999999    0.6771540899999999    0.2211807599999999 C
   0.0553331699999998    0.4933027200000000    0.1106663499999999 C
   0.6105903700000002    0.0440266600000000    0.2211807400000001 C
   0.2826702199999999    0.3496266000000000    0.5653404399999999 C
