C8
1.0
  -1.2569748150000006   -2.1771442434144905   -0.0000000000000003
  -1.2569748149999993    2.1771442434144905    0.0000000000000002
   0.0000000000000000    0.0000000000000000   -8.3108417899999996
C
8
direct
   0.6666666666666667    0.3333333333333333    0.3445566000000000 C
   0.0000000000000000    0.0000000000000000    0.4071350200000000 C
   0.3333333333333334    0.6666666666666666    0.8445566000000000 C
   0.3333333333333334    0.6666666666666666    0.6554434000000000 C
   0.6666666666666667    0.3333333333333333    0.1554434000000000 C
   0.0000000000000000    0.0000000000000000    0.9071350200000000 C
   0.0000000000000000    0.0000000000000000    0.5928649800000000 C
   0.0000000000000000    0.0000000000000000    0.0928649799999999 C
