C8
1.0
  -0.0000000000000004   -2.5419903700000002   -0.0000000000000002
  -4.0264743694496410    0.0000000000000000    1.5101768097156303
   0.0000000000000000    0.0000000000000000   -4.9138350300000004
C
8
direct
   0.0000000000000000    0.8551661400000000    0.8467982700000000 C
   0.5000000000000000    0.6712539700000000    0.8720184700000000 C
   0.0000000000000000    0.0851850700000000    0.6641024999999999 C
   0.5000000000000000    0.7114623300000000    0.2131844000000001 C
   0.5000000000000000    0.2885376700000000    0.7868155999999999 C
   0.0000000000000000    0.9148149300000000    0.3358975000000000 C
   0.5000000000000000    0.3287460300000000    0.1279815300000000 C
   0.0000000000000000    0.1448338600000000    0.1532017299999999 C
