C12
1.0
  -0.9402787620847329    3.7210994733469409    1.8807127269973436
  -2.9448188339863273   -3.7210994733469409    1.0335112606011769
   3.8850975960710601    0.0000000000000000    1.9423884924014794
C
12
direct
   0.7726822300000001    0.1787731400000001    0.0009991800000000 C
   0.2273177700000000    0.8212268600000000    0.9990008199999999 C
   0.0647185199999999    0.4999999999999999    0.3351159200000001 C
   0.4352814799999999    0.5000000000000000    0.3351159200000000 C
   0.4060909000000000    0.1787731300000001    0.0009991700000000 C
   0.7273177700000000    0.8212268600000001    0.3222260300000001 C
   0.9060908999999999    0.1787731300000001    0.6777739600000000 C
   0.5939091000000000    0.8212268699999999    0.9990008300000000 C
   0.2726822300000000    0.1787731400000000    0.6777739699999999 C
   0.5647185200000000    0.4999999999999999    0.6648840800000000 C
   0.0939090999999999    0.8212268699999999    0.3222260400000000 C
   0.9352814800000000    0.5000000000000000    0.6648840800000000 C
