C12
1.0
   2.5185481900000002    0.0000000000000000    0.0000000000000002
   0.0000000000000007    4.2081153899999997    0.0000000000000003
   0.0000000000000000    0.0000000000000000    6.6020393000000004
C
12
direct
   0.0000000000000000    0.4547416200000000    0.7973862600000000 C
   0.0000000000000000    0.7769464300000000    0.1370458800000000 C
   0.5000000000000000    0.9547416200000000    0.2026137400000000 C
   0.0000000000000000    0.4290895600000000    0.1925384400000000 C
   0.5000000000000000    0.2768425200000000    0.1007529300000000 C
   0.0000000000000000    0.7768425200000000    0.8992470600000000 C
   0.5000000000000000    0.8056760200000000    0.5802563100000000 C
   0.5000000000000000    0.9290895600000000    0.8074615600000000 C
   0.0000000000000000    0.5817845000000000    0.5759943300000000 C
   0.5000000000000000    0.2769464300000000    0.8629541100000000 C
   0.0000000000000000    0.3056760200000000    0.4197436900000000 C
   0.5000000000000000    0.0817845000000000    0.4240056700000000 C
