C4
1.0
   1.1556043449020839    2.1963911899928248    0.0000000000000003
   1.5094754848023377   -2.1963911899928248   -0.2591874654307090
  -0.0000000000000000   -0.0000000000000000   -4.2510536800000001
C
4
direct
   0.8213201100000002    0.6426402200000001    0.0650689800000001 C
   0.7811818800000000    0.5623637600000000    0.4212578300000001 C
   0.1786798900000000    0.3573597799999999    0.9349310200000001 C
   0.2188181200000001    0.4376362400000000    0.5787421699999999 C
