C12
1.0
  -0.9622441819399210   -2.3476314911892198   -0.0000000000000004
  -3.3449344796882690    0.0000000000000000    0.8869483252700155
  -3.3449344796882690    0.0000000000000000   -9.1075862447299851
C
12
direct
   0.9631472500000000    0.7201603500000000    0.3535451500000000 C
   0.2446800400000000    0.8256119300000000    0.6850279900000000 C
   0.0368527500000000    0.2798396500000000    0.6464548500000000 C
   0.2640685600000000    0.3831797499999998    0.0886831300000001 C
   0.1985959400000000    0.3574705400000000    0.2453375799999999 C
   0.8014040600000000    0.6425294600000000    0.7546624200000001 C
   0.7553199600000000    0.1743880699999999    0.3149720100000000 C
   0.7359314400000000    0.6168202400000000    0.9113168800000000 C
   0.5210116000000000    0.5352317200000000    0.4227450800000000 C
   0.8799038000000000    0.2217460700000002    0.0184463299999998 C
   0.4789884000000000    0.4647682800000000    0.5772549200000000 C
   0.1200962000000000    0.7782539300000000    0.9815536700000000 C
