C12
1.0
  -0.0000000000000004   -2.4961129400000002   -0.0000000000000002
  -4.2719471806348803    0.0000000000000000    0.9164107815466879
   0.0000000000000000    0.0000000000000000   -7.1355488899999999
C
12
direct
   0.2500000000000000    0.8548057500000000    0.3108633400000000 C
   0.2500000000000000    0.9306616800000000    0.1114845500000000 C
   0.7500000000000000    0.7821404600000000    0.5939408000000000 C
   0.7500000000000000    0.1390332999999999    0.1160590700000000 C
   0.7500000000000000    0.3478899000000000    0.3210439800000000 C
   0.2500000000000000    0.2178595400000000    0.4060592000000000 C
   0.2500000000000000    0.8609667000000000    0.8839409300000000 C
   0.7500000000000000    0.1451942499999999    0.6891366600000001 C
   0.7500000000000000    0.0693383200000000    0.8885154500000000 C
   0.7500000000000000    0.7054810499999999    0.3740960000000000 C
   0.2500000000000000    0.6521101000000000    0.6789560200000000 C
   0.2500000000000000    0.2945189499999999    0.6259040000000000 C
