C8
1.0
   1.2151113073264699    2.1695314802281183   -0.3745416738735621
   2.4866367512955030   -0.0000000000000000   -0.3745416738735621
  -0.0000000000000000   -0.0000000000000000   -8.4418427099999995
C
8
direct
   0.4068328400000000    0.4068328400000000    0.7795014800000002 C
   0.2389926100000000    0.2389926200000000    0.2830221500000001 C
   0.8229944900000000    0.8229944900000001    0.5310165300000000 C
   0.3438670100000000    0.3438670099999999    0.9683989700000002 C
   0.6561329900000000    0.6561329899999999    0.0316010300000003 C
   0.5931671600000000    0.5931671600000000    0.2204985200000003 C
   0.1770055100000000    0.1770055200000000    0.4689834500000001 C
   0.7610073800000000    0.7610073800000000    0.7169778600000001 C
