C12
1.0
   0.4774775073767001    2.4799683480573660    0.0000000000000008
  -0.0000000000000000   -0.0000000000000000    4.3176448199999999
   6.2016096526232998   -2.4799683480573660   -0.0000000000000004
C
12
direct
   0.2826215400000001    0.1822381300000000    0.5652430799999999 C
   0.6109758600000000    0.3187305000000000    0.2219517200000000 C
   0.2826215400000001    0.8177618700000000    0.5652430799999999 C
   0.3890241400000001    0.6812695000000000    0.7780482700000000 C
   0.6109758600000000    0.6812695000000000    0.2219517200000000 C
   0.7173784600000002    0.1822381300000000    0.4347569200000001 C
   0.0595431900000001    0.1847129700000000    0.1190863799999999 C
   0.9404568100000000    0.1847129700000000    0.8809136200000001 C
   0.0595431900000001    0.8152870300000000    0.1190863799999999 C
   0.9404568100000000    0.8152870300000000    0.8809136200000001 C
   0.3890241400000001    0.3187305000000000    0.7780482700000000 C
   0.7173784600000002    0.8177618700000000    0.4347569200000001 C
