C12
1.0
   0.4704267339568471    2.4601022356833431    0.0000000000000008
  -0.0000000000000000   -0.0000000000000000    4.2803730199999999
   6.1973536760431527   -2.4601022356833431   -0.0000000000000004
C
12
direct
   0.2264200800000000    0.0680565100000000    0.4528401599999999 C
   0.8930217799999999    0.9340880300000000    0.7860435600000001 C
   0.1069782099999999    0.0659119700000000    0.2139564299999999 C
   0.2264200800000000    0.4319434900000000    0.4528401599999999 C
   0.4441764400000000    0.0648929600000000    0.8883528800000000 C
   0.4441764400000000    0.4351070400000000    0.8883528800000000 C
   0.5558235599999999    0.9351070400000000    0.1116471200000000 C
   0.8930217799999999    0.5659119699999999    0.7860435600000001 C
   0.1069782099999999    0.4340880300000000    0.2139564299999999 C
   0.5558235599999999    0.5648929600000000    0.1116471200000000 C
   0.7735799199999998    0.5680565100000000    0.5471598400000000 C
   0.7735799199999998    0.9319434900000000    0.5471598400000000 C
