C12
1.0
  -0.4067895429907566    3.2659177089543925    0.4670059030354595
  -3.2911542373381009    0.0000000000000000    0.4670059030354590
   0.0000000000000000    0.0000000000000000    6.6337192399999996
C
12
direct
   0.1989788200000000    0.5606949600000000    0.9399591500000000 C
   0.8875437400000000    0.2481599600000000    0.2738151100000000 C
   0.1124562600000000    0.7518400400000000    0.7261848900000000 C
   0.0516862300000000    0.4133291200000001    0.6062436700000000 C
   0.5866708799999999    0.9483137699999999    0.3937563300000000 C
   0.7518400400000000    0.1124562600000000    0.7261848900000000 C
   0.5606949600000000    0.1989788200000002    0.9399591500000000 C
   0.8010211799999999    0.4393050400000001    0.0600408500000000 C
   0.4133291200000000    0.0516862300000001    0.6062436700000000 C
   0.2481599600000000    0.8875437400000000    0.2738151100000000 C
   0.4393050400000000    0.8010211800000000    0.0600408500000000 C
   0.9483137699999999    0.5866708800000000    0.3937563300000000 C
