C10
1.0
  -1.2581867900000008   -2.1792434456919940   -0.0000000000000003
  -1.2581867899999994    2.1792434456919940    0.0000000000000002
   0.0000000000000000    0.0000000000000000  -10.3755169400000007
C
10
direct
   0.6666666666666666    0.3333333333333333    0.0252969100000000 C
   0.0000000000000000    0.0000000000000000    0.5745106099999999 C
   0.6666666666666666    0.3333333333333333    0.6242557300000000 C
   0.3333333333333333    0.6666666666666666    0.9747030900000000 C
   0.6666666666666666    0.3333333333333333    0.7731982700000000 C
   0.3333333333333333    0.6666666666666666    0.8233421100000000 C
   0.3333333333333333    0.6666666666666666    0.3757442700000000 C
   0.6666666666666666    0.3333333333333333    0.1766578900000001 C
   0.3333333333333333    0.6666666666666666    0.2268017300000000 C
   0.0000000000000000    0.0000000000000000    0.4254893900000000 C
