C8
1.0
   0.0000000000000000    0.0000000000000000   -2.5074294600000000
  -1.8598057963555328   -3.8214290990523390   -0.0000000000000006
  -2.9961307736444671    3.8214290990523390    0.0000000000000003
C
8
direct
   0.5000000000000000    0.7258339100000000    0.8215135800000000 C
   0.5000000000000000    0.0956796700000000    0.8215135800000000 C
   1.0000000000000000    0.8514824800000000    0.3328990300000000 C
   0.5000000000000000    0.2741660900000000    0.1784864200000000 C
   0.0000000000000000    0.1485175199999998    0.6671009699999998 C
   0.0000000000000000    0.5185834499999999    0.6671009699999999 C
   0.5000000000000000    0.9043203300000000    0.1784864200000000 C
   0.0000000000000000    0.4814165500000001    0.3328990300000001 C
