C12
1.0
  -0.8255648318007727   -2.3823438355094506   -0.0000000000000013
  -3.8501636680850262    0.0000000000000000    2.5380518036163555
  -3.8501636680850262    0.0000000000000000   -5.1154331563836450
C
12
direct
   0.8055262700000000    0.9542984300000000    0.4346490300000000 C
   0.1944737300000001    0.0457015699999999    0.5653509700000001 C
   0.3086977000000000    0.4211979000000000    0.9614066999999999 C
   0.3873224800000000    0.4985477299999999    0.7268073100000001 C
   0.6019708800000000    0.8767998300000001    0.9192584100000000 C
   0.6913023000000000    0.5788020999999998    0.0385933000000002 C
   0.8153087400000000    0.1439928200000000    0.2253897000000001 C
   0.6126775200000000    0.5014522700000000    0.2731926900000000 C
   0.0060676600000000    0.5937894499999998    0.3940752300000000 C
   0.1846912600000000    0.8560071800000000    0.7746103000000000 C
   0.3980291200000000    0.1232001699999998    0.0807415900000001 C
   0.9939323400000000    0.4062105500000001    0.6059247700000001 C
