C2
1.0
   0.7284618034796451    2.0604011243033566    1.2617328550000002
   0.7284618034796451    2.0604011243033566   -1.2617328549999998
  -1.4569236069592899    2.0604011243033566   -0.0000000000000000
C
2
direct
   0.7499999999999999    0.7500000000000000    0.7500000000000000 C
   0.0000000000000000    0.0000000000000000    0.0000000000000000 C
