C8
1.0
  -0.1004407711299106    3.4463418192200912    0.0000000000000002
   3.4478051399999998    0.0000000000000000    0.0000000000000002
   0.0000000000000000    0.0000000000000000   -4.3728539199999998
C
8
direct
   0.1923576000000000    0.4773267199999999    0.0725600199999999 C
   0.1923576000000000    0.4773267199999999    0.4274399700000000 C
   0.4773267200000000    0.1923576100000000    0.5725600300000000 C
   0.8076424000000000    0.5226732800000000    0.5725600300000000 C
   0.8076424000000000    0.5226732800000000    0.9274399700000000 C
   0.5226732800000000    0.8076424000000000    0.4274399700000000 C
   0.5226732800000000    0.8076424000000000    0.0725600199999999 C
   0.4773267200000000    0.1923576100000000    0.9274399700000000 C
