C8
1.0
  -0.4675833814581282    3.2895009631188428    0.0000000000000002
   3.3225669000000000    0.0000000000000000    0.0000000000000002
   0.0000000000000000    0.0000000000000000   -4.3500666700000004
C
8
direct
   0.4541265400000000    0.1842872600000000    0.9101291800000000 C
   0.9541265399999999    0.6842872600000001    0.5898708200000000 C
   0.0458734600000000    0.3157127500000000    0.4101291800000000 C
   0.5458734600000000    0.8157127400000000    0.0898708200000000 C
   0.6842872600000000    0.9541265400000000    0.4101291800000001 C
   0.1842872600000000    0.4541265400000000    0.0898708200000000 C
   0.3157127400000000    0.0458734600000000    0.5898708200000000 C
   0.8157127500000000    0.5458734600000000    0.9101291800000000 C
