C12
1.0
   3.5068337484854348    0.0000000000000000    0.0001030662747929
  -0.0001280747926029    3.5070585873323918    0.0000480392241193
   0.0000000000000000    0.0000000000000000    6.2608415500000003
C
12
direct
   0.0108625400000000    0.6341574800000001    0.7280960100000000 C
   0.3550054900000000    0.7899652400000000    0.8541211500000000 C
   0.6665979400000001    0.4783700900000000    0.1021045400000000 C
   0.0107405600000000    0.6341979000000000    0.2281054800000000 C
   0.3549286500000000    0.7899638800000000    0.1021012100000000 C
   0.6666666666666666    0.4783871800000000    0.8541285500000000 C
   0.5108555900000000    0.1341820800000000    0.7281332400000000 C
   0.8550564200000000    0.9783711800000000    0.6021085500000000 C
   0.1666563200000000    0.2899791800000000    0.6020919000000000 C
   0.1665506300000000    0.2899992100000000    0.3541150300000000 C
   0.5107468300000000    0.1341686900000000    0.2281065800000000 C
   0.8549379900000000    0.9783783000000000    0.3541391000000000 C
