C12
1.0
   0.4762456851221231    2.4801467926815586   -0.0000000000000007
  -0.0000000000000000   -0.0000000000000000    4.2153444300000000
   6.2198129513047640   -2.4801467926815586   -0.7333878305564362
C
12
direct
   0.6498685599999999    0.0379349000000000    0.2997371200000000 C
   0.8458056400000000    0.4347245600000000    0.6916112800000001 C
   0.1541943599999999    0.5652754400000000    0.3083887200000001 C
   0.5388334099999998    0.8749358500000000    0.0776668199999999 C
   0.9605464900000000    0.3480463100000000    0.9210929800000000 C
   0.2998359000000000    0.2667394700000000    0.5996718000000001 C
   0.4611665899999999    0.1250641500000000    0.9223331800000001 C
   0.0394535099999999    0.6519536900000000    0.0789070200000000 C
   0.1820493699999999    0.2266235600000000    0.3640987399999999 C
   0.8179506300000000    0.7733764400000001    0.6359012600000000 C
   0.7001641000000000    0.7332605300000000    0.4003282000000000 C
   0.3501314400000000    0.9620651000000001    0.7002628799999999 C
