C12
1.0
   0.5465669752588367    2.4637606130702152    0.0000000000000007
  -0.0000000000000000   -0.0000000000000000    4.8937529299999998
   5.2796648547411635   -2.4637606130702152   -0.0000000000000004
C
12
direct
   0.9416785400000000    0.9223439300000000    0.8833570800000000 C
   0.7003798200000000    0.7500000000000000    0.4007596400000000 C
   0.2996201800000000    0.2500000000000000    0.5992403600000000 C
   0.6320520900000000    0.0176550700000000    0.2641041800000000 C
   0.0583214600000000    0.0776560700000000    0.1166429200000001 C
   0.9416785400000000    0.5776560700000000    0.8833570800000000 C
   0.0583214600000000    0.4223439300000000    0.1166429200000001 C
   0.3679479100000000    0.9823449300000000    0.7358958200000001 C
   0.3679479100000000    0.5176550700000000    0.7358958200000001 C
   0.2782566800000000    0.7500000000000000    0.5565133700000000 C
   0.7217433199999999    0.2500000000000000    0.4434866399999999 C
   0.6320520900000000    0.4823449300000000    0.2641041800000000 C
