C12
1.0
   0.0000000000000000    0.0000000000000000   -2.5201937900000000
  -0.9161780191873188   -3.7420662755014353   -0.0000000000000010
  -7.1840175008126810    3.7420662755014353    0.0000000000000005
C
12
direct
   0.0000000000000000    0.5502192699999999    0.1004385400000000 C
   1.0000000000000000    0.6673508800000001    0.7349552100000000 C
   1.0000000000000000    0.0676043300000001    0.7349552100000000 C
   0.5000000000000000    0.2226952600000001    0.8281198399999998 C
   0.5000000000000000    0.6054245800000000    0.8281198400000001 C
   1.0000000000000000    0.9141430300000000    0.2379980300000000 C
   1.0000000000000000    0.2950223900000000    0.5900447799999999 C
   0.5000000000000000    0.4681520300000002    0.3459651600000002 C
   0.5000000000000000    0.4978052600000000    0.9956105200000001 C
   0.0000000000000000    0.3238550000000000    0.2379980300000000 C
   0.5000000000000000    0.8778131299999999    0.3459651600000000 C
   0.5000000000000000    0.2415092100000003    0.4830184200000001 C
