C10
1.0
   1.2279548050024631    2.1681301909383817   -0.2987070458382384
   2.4917185892446083   -0.0000000000000000   -0.2987070458382384
  -0.0000000000000000   -0.0000000000000000  -10.5419130800000005
C
10
direct
   0.3918235700000000    0.3918235700000000    0.8245292899999999 C
   0.5246467200000001    0.5246467199999999    0.4260598399999997 C
   0.6582831700000000    0.6582831699999999    0.0251504899999999 C
   0.6081764300000000    0.6081764300000000    0.1754707099999999 C
   0.2079240400000000    0.2079240400000000    0.3762278800000000 C
   0.7419154000000000    0.7419154000000000    0.7742537999999999 C
   0.7920759600000000    0.7920759600000001    0.6237721199999999 C
   0.2580846000000000    0.2580846000000000    0.2257461999999999 C
   0.3417168300000001    0.3417168300000000    0.9748495099999999 C
   0.4753532800000000    0.4753532800000000    0.5739401600000000 C
