C12
1.0
  -0.0154303626392789    3.4123193111761956    0.4914552769891106
  -3.4123541987192896    0.0000000000000000    0.4914552769891101
   0.0000000000000000    0.0000000000000000    6.6820069499999999
C
12
direct
   0.9908184000000000    0.3206770900000000    0.4515863800000000 C
   0.8747281700000000    0.2059799300000000    0.8826635000000002 C
   0.0091816000000000    0.6793229100000000    0.5484136100000000 C
   0.3206770900000000    0.9908184000000000    0.4515863800000001 C
   0.9456623499999999    0.6177110399999999    0.7853639200000000 C
   0.1252718300000000    0.7940200800000000    0.1173364900000000 C
   0.3822889600000000    0.0543376500000000    0.2146360800000000 C
   0.6177110299999999    0.9456623399999999    0.7853639200000001 C
   0.0543376500000000    0.3822889599999999    0.2146360800000000 C
   0.2059799200000000    0.8747281700000000    0.8826635000000002 C
   0.7940200799999999    0.1252718299999999    0.1173364900000000 C
   0.6793229100000000    0.0091816000000001    0.5484136100000000 C
