C4
1.0
  -1.2533268650000007   -2.1708258086710197   -0.0000000000000003
  -1.2533268649999993    2.1708258086710197    0.0000000000000002
   0.0000000000000000    0.0000000000000000   -4.1899270800000004
C
4
direct
   0.3333333333333334    0.6666666666666667    0.5626639700000000 C
   0.6666666666666667    0.3333333333333333    0.4373360300000000 C
   0.6666666666666667    0.3333333333333333    0.0626639700000000 C
   0.3333333333333334    0.6666666666666667    0.9373360300000000 C
