C4
1.0
   0.8130631774610575    2.1671494374087623   -0.9368347394089697
   0.8130631774610575    2.1671494374087623    2.3910028605910303
   3.2947060961082539   -0.0000000000000000   -0.4684173697044848
C
4
direct
   0.8195673200000000    1.0000000000000000    0.3608653600000001 C
   0.8195673200000000    0.3608653600000000    0.0000000000000000 C
   0.1804326800000001    0.6391346400000000    0.0000000000000001 C
   0.1804326800000000    1.0000000000000000    0.6391346400000000 C
