C8
1.0
   0.0000000000000000    0.0000000000000000   -2.5308790700000001
  -1.9048510183436207   -3.8573907719413869   -0.0000000000000006
  -2.9532509516563792    3.8573907719413869    0.0000000000000003
C
8
direct
   0.2500000000000000    0.5247954500000001    0.4172023000000000 C
   0.2500000000000000    0.8667169100000001    0.0977830000000000 C
   0.7500000000000000    0.1075931500000001    0.5827977000000001 C
   0.7500000000000000    0.1332830900000002    0.9022170000000000 C
   0.2500000000000000    0.8924068600000000    0.4172023000000000 C
   0.2500000000000000    0.2310660900000000    0.0977829899999999 C
   0.7500000000000000    0.4752045499999999    0.5827977000000000 C
   0.7500000000000000    0.7689339100000000    0.9022169999999999 C
