C12
1.0
   0.0000000000000000    0.0000000000000000   -2.4771501800000002
  -2.8862707200000020   -4.9991675314384061   -0.0000000000000007
  -2.8862707199999984    4.9991675314384061    0.0000000000000004
C
12
direct
   1.0000000000000000    0.4938628500000000    0.2469314200000000 C
   0.5000000000000000    0.1606827199999999    0.8393172700000000 C
   0.5000000000000000    0.6786345499999999    0.8393172700000000 C
   0.0000000000000000    0.2469314200000000    0.7530685700000000 C
   0.5000000000000000    0.3213654500000001    0.1606827300000001 C
   0.0000000000000000    0.7530685800000000    0.2469314300000000 C
   0.0000000000000000    0.7530685700000000    0.5061371499999999 C
   0.5000000000000000    0.8393172800000001    0.6786345599999999 C
   0.5000000000000000    0.1606827199999999    0.3213654400000000 C
   0.0000000000000000    0.2469314299999998    0.4938628500000000 C
   0.5000000000000000    0.8393172800000001    0.1606827300000000 C
   0.0000000000000000    0.5061371500000000    0.7530685800000000 C
