C12
1.0
   2.5096573800000002    0.0000000000000000    0.0000000000000002
   0.0000000000000004    2.5853993599999998    0.0000000000000002
   0.0000000000000000    0.0000000000000000   11.4193105100000007
C
12
direct
   0.7500000000000000    0.0000000000000000    0.6532709200000000 C
   0.2500000000000000    0.0000000000000000    0.3467290800000000 C
   0.2500000000000000    0.0000000000000000    0.4685268600000000 C
   0.7500000000000000    0.5000000000000000    0.1944658600000000 C
   0.7500000000000000    0.0000000000000000    0.2760892700000000 C
   0.2500000000000000    0.5000000000000000    0.8055341400000000 C
   0.2500000000000000    0.5000000000000000    0.1171117600000000 C
   0.2500000000000000    0.0000000000000000    0.0390459500000000 C
   0.7500000000000000    0.0000000000000000    0.5314731400000000 C
   0.7500000000000000    0.5000000000000000    0.8828882400000000 C
   0.7500000000000000    0.0000000000000000    0.9609540500000000 C
   0.2500000000000000    0.0000000000000000    0.7239107299999999 C
