C10
1.0
   1.2306535506691203    2.1736544985923771   -0.3021466353656219
   2.4978554884190940   -0.0000000000000000   -0.3021466353656219
  -0.0000000000000000   -0.0000000000000000  -10.4759972300000008
C
10
direct
   0.5746597500000000    0.5746597500000000    0.2760207499999996 C
   0.8912766600000001    0.8912766600000001    0.3261700199999997 C
   0.9752007099999999    0.9752007100000000    0.0743978699999999 C
   0.0247992900000000    0.0247992900000000    0.9256021300000000 C
   0.4253402500000000    0.4253402500000000    0.7239792500000000 C
   0.6251546100000001    0.6251546100000001    0.1245361699999996 C
   0.8416167400000000    0.8416167400000000    0.4751497800000002 C
   0.1583832600000000    0.1583832600000000    0.5248502200000000 C
   0.1087233400000000    0.1087233400000000    0.6738299800000001 C
   0.3748453899999999    0.3748453900000000    0.8754638299999999 C
