C12
1.0
  -0.0932384166356656    2.4908133214447892    0.3972285325030072
  -3.5678397560328814    0.0000000000000000   -0.8374517475061385
   0.0932384166356656   -2.4908133214447892    7.6216250874969926
C
12
direct
   0.1978959699999999    0.8289758400000000    0.3957919500000000 C
   0.9593260700000000    0.3342230199999999    0.9186521400000001 C
   0.3778367799999999    0.7474976700000000    0.7556735600000000 C
   0.0406739300000000    0.6657769800000000    0.0813478600000000 C
   0.4593260600000000    0.0844291100000000    0.9186521300000001 C
   0.6221632200000000    0.2525023300000000    0.2443264400000000 C
   0.1221632299999999    0.4918241200000000    0.2443264500000001 C
   0.6978959700000000    0.0668161099999999    0.3957919500000000 C
   0.3021040200000000    0.9331838900000000    0.6042080400000001 C
   0.8021040200000000    0.1710241599999998    0.6042080400000001 C
   0.5406739299999999    0.9155708800000000    0.0813478600000000 C
   0.8778367700000000    0.5081758800000000    0.7556735500000000 C
