C12
1.0
   2.4962171199999998    0.0000000000000000    0.0000000000000002
   0.0000000000000008    4.9100382099999997    0.0000000000000003
   0.0000000000000000    0.0000000000000000    5.8492036799999996
C
12
direct
   0.5000000000000000    0.2466353900000000    0.6227543400000000 C
   0.5000000000000000    0.4874998500000000    0.2500000000000000 C
   0.0000000000000000    0.1583960900000000    0.4985658200000000 C
   0.5000000000000000    0.7533646100000000    0.1227543400000000 C
   0.0000000000000000    0.8416039100000000    0.5014341800000000 C
   0.0000000000000000    0.6868558000000000    0.7500000000000000 C
   0.0000000000000000    0.3131442000000000    0.2500000000000000 C
   0.5000000000000000    0.5125001500000000    0.7500000000000000 C
   0.5000000000000000    0.2466353900000000    0.8772456600000000 C
   0.0000000000000000    0.8416039100000000    0.9985658200000000 C
   0.0000000000000000    0.1583960900000000    0.0014341800000000 C
   0.5000000000000000    0.7533646100000000    0.3772456600000000 C
