C8
1.0
  -0.9250917136246009   -2.3564043964239443   -0.0000000000000004
  -2.5385845163753991    2.3564043964239443    0.0000000000000002
   0.0000000000000000    0.0000000000000000   -6.4187219999999998
C
8
direct
   0.8014812300000000    0.6029624600000001    0.8671922100000000 C
   0.3877054099999999    0.7754108199999999    0.5278779900000001 C
   0.6122945900000000    0.2245891900000000    0.4721220100000000 C
   0.1985187700000000    0.3970375399999999    0.3671922100000001 C
   0.6122945900000000    0.2245891900000000    0.0278779900000001 C
   0.8014812300000000    0.6029624600000001    0.6328077900000000 C
   0.3877054099999999    0.7754108199999999    0.9721220100000000 C
   0.1985187700000000    0.3970375399999999    0.1328077900000001 C
