C6
1.0
   1.1825125564503636    2.1607509553689637   -0.4916646433634186
   2.4631647604840938   -0.0000000000000000   -0.4916646433634186
  -0.0000000000000000   -0.0000000000000000   -6.4158719199999998
C
6
direct
   0.3193746800000000    0.3193746800000000    0.0418759600000000 C
   0.7644610100000000    0.7644610100000000    0.7066169700000002 C
   0.4588749100000000    0.4588749100000001    0.6233752700000001 C
   0.5411250900000000    0.5411250800000000    0.3766247400000002 C
   0.2355389900000000    0.2355389900000000    0.2933830300000000 C
   0.6806253199999999    0.6806253200000000    0.9581240400000000 C
